Maximize
  - 3.9672619340948 edge_0_2_0_0 - 1.1756254177152 edge_0_3_0_0
   - 2.3950135695007 edge_0_4_0_0 - 3.5766240138682 edge_0_5_0_0
   - 2.3819789995684 edge_0_6_0_0 - 2.045226582168 edge_0_7_0_0
   - 3.8130299360928 edge_0_8_0_0 + 0.667377652258032 edge_2_3_0_0
   + 0.111263 edge_2_4_0_0 - 0.8969517374900366 edge_2_5_0_0
   - 0.3262155274781545 edge_2_6_0_0 - 0.4933730773772641 edge_2_7_0_0
   + 0.3005498618367675 edge_2_8_0_0 + 0.11324634132416 edge_2_9_0_0
   + 2.991767102017162 edge_3_2_0_0 + 1.042062807931988 edge_3_3_0_0
   + 2.374926744629598 edge_3_4_0_0 - 0.7140321101879564 edge_3_5_0_0
   + 0.4263415438141086 edge_3_6_0_0 + 0.8275344834634101 edge_3_7_0_0
   + 0.111748727772231 edge_3_8_0_0 + 2.555494812337193 edge_3_9_0_0
   - 0.9249671548123244 edge_4_2_0_0 - 0.1429981692291728 edge_4_3_0_0
   - 0.4634210633941216 edge_4_6_0_0 - 0.1338098805543999 edge_4_7_0_0
   - 0.5744981298265467 edge_4_8_0_0 - 0.6829096380845211 edge_4_9_0_0
   - 0.7663465707588659 edge_5_2_0_0 - 0.6122645653825604 edge_5_3_0_0
   - 0.1212800692649541 edge_5_4_0_0 + 1.863356659436592 edge_5_6_0_0
   + 0.1359781813079898 edge_5_7_0_0 - 0.0601386020508659 edge_5_8_0_0
   + 0.5990754129629344 edge_5_9_0_0 + 0.7402430012704007 edge_6_2_0_0
   - 0.1413408487651461 edge_6_3_0_0 - 0.3171265246955037 edge_6_4_0_0
   + 3.240732951153622 edge_6_5_0_0 + 1.12387483785627 edge_6_7_0_0
   + 1.081481059392017 edge_6_8_0_0 + 0.958866226094776 edge_6_9_0_0
   + 0.203244699384128 edge_7_2_0_0 + 0.2551133471698546 edge_7_3_0_0
   - 0.0317773436996823 edge_7_4_0_0 + 0.523347175040736 edge_7_5_0_0
   + 2.285085826486002 edge_7_6_0_0 + 1.713985503229293 edge_7_8_0_0
   + 1.7328059206902 edge_7_9_0_0 + 0.1228800865472586 edge_8_2_0_0
   - 0.1717584833230882 edge_8_3_0_0 + 0.3738316310743081 edge_8_4_0_0
   + 0.278437913992035 edge_8_5_0_0 + 0.8695901118463689 edge_8_6_0_0
   + 1.379983230963792 edge_8_7_0_0 + 0.911376277832139 edge_8_9_0_0
   - 0.9351892698972117 edge_9_6_0_0 - 1.460127195928024 edge_9_7_0_0
   - 0.8621395593514671 edge_9_8_0_0
Subject To
 one_parent_1: = 1
 consume_one_flow_unit_1: = 1
 one_parent_2: edge_0_2_0_0 + edge_3_2_0_0 + edge_4_2_0_0 + edge_5_2_0_0
   + edge_6_2_0_0 + edge_7_2_0_0 + edge_8_2_0_0 = 1
 consume_one_flow_unit_2: flow_0_2_0_0 - flow_2_3_0_0 - flow_2_4_0_0
   - flow_2_5_0_0 - flow_2_6_0_0 - flow_2_7_0_0 - flow_2_8_0_0
   - flow_2_9_0_0 + flow_3_2_0_0 + flow_4_2_0_0 + flow_5_2_0_0
   + flow_6_2_0_0 + flow_7_2_0_0 + flow_8_2_0_0 = 1
 one_parent_3: edge_0_3_0_0 + edge_2_3_0_0 + edge_3_3_0_0 + edge_4_3_0_0
   + edge_5_3_0_0 + edge_6_3_0_0 + edge_7_3_0_0 + edge_8_3_0_0 = 1
 consume_one_flow_unit_3: flow_0_3_0_0 + flow_2_3_0_0 - flow_3_2_0_0
   - flow_3_4_0_0 - flow_3_5_0_0 - flow_3_6_0_0 - flow_3_7_0_0
   - flow_3_8_0_0 - flow_3_9_0_0 + flow_4_3_0_0 + flow_5_3_0_0
   + flow_6_3_0_0 + flow_7_3_0_0 + flow_8_3_0_0 = 1
 one_parent_4: edge_0_4_0_0 + edge_2_4_0_0 + edge_3_4_0_0 + edge_5_4_0_0
   + edge_6_4_0_0 + edge_7_4_0_0 + edge_8_4_0_0 = 1
 consume_one_flow_unit_4: flow_0_4_0_0 + flow_2_4_0_0 + flow_3_4_0_0
   - flow_4_2_0_0 - flow_4_3_0_0 - flow_4_6_0_0 - flow_4_7_0_0
   - flow_4_8_0_0 - flow_4_9_0_0 + flow_5_4_0_0 + flow_6_4_0_0
   + flow_7_4_0_0 + flow_8_4_0_0 = 1
 one_parent_5: edge_0_5_0_0 + edge_2_5_0_0 + edge_3_5_0_0 + edge_6_5_0_0
   + edge_7_5_0_0 + edge_8_5_0_0 = 1
 consume_one_flow_unit_5: flow_0_5_0_0 + flow_2_5_0_0 + flow_3_5_0_0
   - flow_5_2_0_0 - flow_5_3_0_0 - flow_5_4_0_0 - flow_5_6_0_0
   - flow_5_7_0_0 - flow_5_8_0_0 - flow_5_9_0_0 + flow_6_5_0_0
   + flow_7_5_0_0 + flow_8_5_0_0 = 1
 one_parent_6: edge_0_6_0_0 + edge_2_6_0_0 + edge_3_6_0_0 + edge_4_6_0_0
   + edge_5_6_0_0 + edge_7_6_0_0 + edge_8_6_0_0 + edge_9_6_0_0 = 1
 consume_one_flow_unit_6: flow_0_6_0_0 + flow_2_6_0_0 + flow_3_6_0_0
   + flow_4_6_0_0 + flow_5_6_0_0 - flow_6_2_0_0 - flow_6_3_0_0
   - flow_6_4_0_0 - flow_6_5_0_0 - flow_6_7_0_0 - flow_6_8_0_0
   - flow_6_9_0_0 + flow_7_6_0_0 + flow_8_6_0_0 + flow_9_6_0_0 = 1
 one_parent_7: edge_0_7_0_0 + edge_2_7_0_0 + edge_3_7_0_0 + edge_4_7_0_0
   + edge_5_7_0_0 + edge_6_7_0_0 + edge_8_7_0_0 + edge_9_7_0_0 = 1
 consume_one_flow_unit_7: flow_0_7_0_0 + flow_2_7_0_0 + flow_3_7_0_0
   + flow_4_7_0_0 + flow_5_7_0_0 + flow_6_7_0_0 - flow_7_2_0_0
   - flow_7_3_0_0 - flow_7_4_0_0 - flow_7_5_0_0 - flow_7_6_0_0
   - flow_7_8_0_0 - flow_7_9_0_0 + flow_8_7_0_0 + flow_9_7_0_0 = 1
 one_parent_8: edge_0_8_0_0 + edge_2_8_0_0 + edge_3_8_0_0 + edge_4_8_0_0
   + edge_5_8_0_0 + edge_6_8_0_0 + edge_7_8_0_0 + edge_9_8_0_0 = 1
 consume_one_flow_unit_8: flow_0_8_0_0 + flow_2_8_0_0 + flow_3_8_0_0
   + flow_4_8_0_0 + flow_5_8_0_0 + flow_6_8_0_0 + flow_7_8_0_0
   - flow_8_2_0_0 - flow_8_3_0_0 - flow_8_4_0_0 - flow_8_5_0_0
   - flow_8_6_0_0 - flow_8_7_0_0 - flow_8_9_0_0 + flow_9_8_0_0 = 1
 one_parent_9: edge_2_9_0_0 + edge_3_9_0_0 + edge_4_9_0_0 + edge_5_9_0_0
   + edge_6_9_0_0 + edge_7_9_0_0 + edge_8_9_0_0 = 1
 consume_one_flow_unit_9: flow_2_9_0_0 + flow_3_9_0_0 + flow_4_9_0_0
   + flow_5_9_0_0 + flow_6_9_0_0 + flow_7_9_0_0 + flow_8_9_0_0
   - flow_9_6_0_0 - flow_9_7_0_0 - flow_9_8_0_0 = 1
 root_flow: flow_0_2_0_0 + flow_0_3_0_0 + flow_0_4_0_0 + flow_0_5_0_0
   + flow_0_6_0_0 + flow_0_7_0_0 + flow_0_8_0_0 = 9
 inactive_no_flow_0_2_0_0: flow_0_2_0_0 - 1000 edge_0_2_0_0 <= 0
 inactive_no_flow_0_3_0_0: flow_0_3_0_0 - 1000 edge_0_3_0_0 <= 0
 inactive_no_flow_0_4_0_0: flow_0_4_0_0 - 1000 edge_0_4_0_0 <= 0
 inactive_no_flow_0_5_0_0: flow_0_5_0_0 - 1000 edge_0_5_0_0 <= 0
 inactive_no_flow_0_6_0_0: flow_0_6_0_0 - 1000 edge_0_6_0_0 <= 0
 inactive_no_flow_0_7_0_0: flow_0_7_0_0 - 1000 edge_0_7_0_0 <= 0
 inactive_no_flow_0_8_0_0: flow_0_8_0_0 - 1000 edge_0_8_0_0 <= 0
 inactive_no_flow_2_3_0_0: flow_2_3_0_0 - 1000 edge_2_3_0_0 <= 0
 inactive_no_flow_2_4_0_0: flow_2_4_0_0 - 1000 edge_2_4_0_0 <= 0
 inactive_no_flow_2_5_0_0: flow_2_5_0_0 - 1000 edge_2_5_0_0 <= 0
 inactive_no_flow_2_6_0_0: flow_2_6_0_0 - 1000 edge_2_6_0_0 <= 0
 inactive_no_flow_2_7_0_0: flow_2_7_0_0 - 1000 edge_2_7_0_0 <= 0
 inactive_no_flow_2_8_0_0: flow_2_8_0_0 - 1000 edge_2_8_0_0 <= 0
 inactive_no_flow_2_9_0_0: flow_2_9_0_0 - 1000 edge_2_9_0_0 <= 0
 inactive_no_flow_3_2_0_0: flow_3_2_0_0 - 1000 edge_3_2_0_0 <= 0
 inactive_no_flow_3_3_0_0: flow_3_3_0_0 - 1000 edge_3_3_0_0 <= 0
 inactive_no_flow_3_4_0_0: flow_3_4_0_0 - 1000 edge_3_4_0_0 <= 0
 inactive_no_flow_3_5_0_0: flow_3_5_0_0 - 1000 edge_3_5_0_0 <= 0
 inactive_no_flow_3_6_0_0: flow_3_6_0_0 - 1000 edge_3_6_0_0 <= 0
 inactive_no_flow_3_7_0_0: flow_3_7_0_0 - 1000 edge_3_7_0_0 <= 0
 inactive_no_flow_3_8_0_0: flow_3_8_0_0 - 1000 edge_3_8_0_0 <= 0
 inactive_no_flow_3_9_0_0: flow_3_9_0_0 - 1000 edge_3_9_0_0 <= 0
 inactive_no_flow_4_2_0_0: flow_4_2_0_0 - 1000 edge_4_2_0_0 <= 0
 inactive_no_flow_4_3_0_0: flow_4_3_0_0 - 1000 edge_4_3_0_0 <= 0
 inactive_no_flow_4_6_0_0: flow_4_6_0_0 - 1000 edge_4_6_0_0 <= 0
 inactive_no_flow_4_7_0_0: flow_4_7_0_0 - 1000 edge_4_7_0_0 <= 0
 inactive_no_flow_4_8_0_0: flow_4_8_0_0 - 1000 edge_4_8_0_0 <= 0
 inactive_no_flow_4_9_0_0: flow_4_9_0_0 - 1000 edge_4_9_0_0 <= 0
 inactive_no_flow_5_2_0_0: flow_5_2_0_0 - 1000 edge_5_2_0_0 <= 0
 inactive_no_flow_5_3_0_0: flow_5_3_0_0 - 1000 edge_5_3_0_0 <= 0
 inactive_no_flow_5_4_0_0: flow_5_4_0_0 - 1000 edge_5_4_0_0 <= 0
 inactive_no_flow_5_6_0_0: flow_5_6_0_0 - 1000 edge_5_6_0_0 <= 0
 inactive_no_flow_5_7_0_0: flow_5_7_0_0 - 1000 edge_5_7_0_0 <= 0
 inactive_no_flow_5_8_0_0: flow_5_8_0_0 - 1000 edge_5_8_0_0 <= 0
 inactive_no_flow_5_9_0_0: flow_5_9_0_0 - 1000 edge_5_9_0_0 <= 0
 inactive_no_flow_6_2_0_0: flow_6_2_0_0 - 1000 edge_6_2_0_0 <= 0
 inactive_no_flow_6_3_0_0: flow_6_3_0_0 - 1000 edge_6_3_0_0 <= 0
 inactive_no_flow_6_4_0_0: flow_6_4_0_0 - 1000 edge_6_4_0_0 <= 0
 inactive_no_flow_6_5_0_0: flow_6_5_0_0 - 1000 edge_6_5_0_0 <= 0
 inactive_no_flow_6_7_0_0: flow_6_7_0_0 - 1000 edge_6_7_0_0 <= 0
 inactive_no_flow_6_8_0_0: flow_6_8_0_0 - 1000 edge_6_8_0_0 <= 0
 inactive_no_flow_6_9_0_0: flow_6_9_0_0 - 1000 edge_6_9_0_0 <= 0
 inactive_no_flow_7_2_0_0: flow_7_2_0_0 - 1000 edge_7_2_0_0 <= 0
 inactive_no_flow_7_3_0_0: flow_7_3_0_0 - 1000 edge_7_3_0_0 <= 0
 inactive_no_flow_7_4_0_0: flow_7_4_0_0 - 1000 edge_7_4_0_0 <= 0
 inactive_no_flow_7_5_0_0: flow_7_5_0_0 - 1000 edge_7_5_0_0 <= 0
 inactive_no_flow_7_6_0_0: flow_7_6_0_0 - 1000 edge_7_6_0_0 <= 0
 inactive_no_flow_7_8_0_0: flow_7_8_0_0 - 1000 edge_7_8_0_0 <= 0
 inactive_no_flow_7_9_0_0: flow_7_9_0_0 - 1000 edge_7_9_0_0 <= 0
 inactive_no_flow_8_2_0_0: flow_8_2_0_0 - 1000 edge_8_2_0_0 <= 0
 inactive_no_flow_8_3_0_0: flow_8_3_0_0 - 1000 edge_8_3_0_0 <= 0
 inactive_no_flow_8_4_0_0: flow_8_4_0_0 - 1000 edge_8_4_0_0 <= 0
 inactive_no_flow_8_5_0_0: flow_8_5_0_0 - 1000 edge_8_5_0_0 <= 0
 inactive_no_flow_8_6_0_0: flow_8_6_0_0 - 1000 edge_8_6_0_0 <= 0
 inactive_no_flow_8_7_0_0: flow_8_7_0_0 - 1000 edge_8_7_0_0 <= 0
 inactive_no_flow_8_9_0_0: flow_8_9_0_0 - 1000 edge_8_9_0_0 <= 0
 inactive_no_flow_9_6_0_0: flow_9_6_0_0 - 1000 edge_9_6_0_0 <= 0
 inactive_no_flow_9_7_0_0: flow_9_7_0_0 - 1000 edge_9_7_0_0 <= 0
 inactive_no_flow_9_8_0_0: flow_9_8_0_0 - 1000 edge_9_8_0_0 <= 0
Bounds
Binaries
 edge_0_2_0_0 edge_0_3_0_0 edge_0_4_0_0 edge_0_5_0_0 edge_0_6_0_0
 edge_0_7_0_0 edge_0_8_0_0 edge_2_3_0_0 edge_2_4_0_0 edge_2_5_0_0
 edge_2_6_0_0 edge_2_7_0_0 edge_2_8_0_0 edge_2_9_0_0 edge_3_2_0_0
 edge_3_3_0_0 edge_3_4_0_0 edge_3_5_0_0 edge_3_6_0_0 edge_3_7_0_0
 edge_3_8_0_0 edge_3_9_0_0 edge_4_2_0_0 edge_4_3_0_0 edge_4_6_0_0
 edge_4_7_0_0 edge_4_8_0_0 edge_4_9_0_0 edge_5_2_0_0 edge_5_3_0_0
 edge_5_4_0_0 edge_5_6_0_0 edge_5_7_0_0 edge_5_8_0_0 edge_5_9_0_0
 edge_6_2_0_0 edge_6_3_0_0 edge_6_4_0_0 edge_6_5_0_0 edge_6_7_0_0
 edge_6_8_0_0 edge_6_9_0_0 edge_7_2_0_0 edge_7_3_0_0 edge_7_4_0_0
 edge_7_5_0_0 edge_7_6_0_0 edge_7_8_0_0 edge_7_9_0_0 edge_8_2_0_0
 edge_8_3_0_0 edge_8_4_0_0 edge_8_5_0_0 edge_8_6_0_0 edge_8_7_0_0
 edge_8_9_0_0 edge_9_6_0_0 edge_9_7_0_0 edge_9_8_0_0
End
